32	4
18	11	16	16
0	0	0	0	0	5	2	28	29	30	31
1	0	0	5	4	1	3
5	10	0	0	6	1	4
2	12	0	9	0	1	5
8	0	11	0	16	1	6
6	0	3	0	5	1	7
6	0	7	0	12	1	8
6	4	0	11	0	2	9	27
6	1	0	9	0	1	10
10	16	0	14	0	1	11
10	0	5	0	1	1	12
5	11	0	7	0	1	13
4	0	0	4	11	1	14
6	0	8	1	0	1	15
9	12	5	0	0	1	16
7	0	9	6	0	1	17
1	0	9	0	15	1	18
4	5	3	0	0	1	19
8	0	4	8	0	1	20
1	12	3	0	0	1	21
9	16	0	0	15	2	22	26
10	0	0	9	9	1	23
6	0	1	0	12	1	24
7	1	3	0	0	1	25
4	0	0	6	8	1	32
7	1	4	0	0	1	32
2	5	0	15	0	1	32
7	0	0	15	4	1	32
10	17	0	0	1	1	32
7	0	8	1	0	1	32
2	12	0	0	1	1	32
0	0	0	0	0	0
